
Log started (V11.0.0) Thu May 15 07:07:07 2008

Tried aggregator 1 time.
Reduced MIP has 210 rows, 2001 columns, and 4010 nonzeros.
Presolve time =    0.02 sec.
Clique table members: 200.
MIP emphasis: balance optimality and feasibility.
MIP search method: dynamic search.
Parallel mode: none, using 1 thread.
Root relaxation solution time =    0.03 sec.

        Nodes                                         Cuts/
   Node  Left     Objective  IInf  Best Integer     Best Node    ItCnt     Gap

*     0+    0                        21936.0000     2028.3829      245   90.75%
*     0+    0                         2048.0000     2028.3829      245    0.96%
      0     0     2029.0000    22     2048.0000      Fract: 8      268    0.93%
*     0+    0                         2042.0000     2029.0000      268    0.64%
      0     0     2029.0000    28     2042.0000     Covers: 2      313    0.64%
      0     0     2029.0000    26     2042.0000     Covers: 2      332    0.64%
*     0+    0                         2041.0000     2029.0000      332    0.59%
*     0+    0                         2035.0000     2029.0000      332    0.29%
      0     2     2029.0000    26     2035.0000     2029.0000      332    0.29%
    100    90     2030.0000    19     2035.0000     2029.0000     2221    0.29%
    200   136     2032.0000    17     2035.0000     2029.0000     5117    0.29%
    300   166        cutoff           2035.0000     2029.0000     7618    0.29%
    400   181     2034.0000    18     2035.0000     2029.0000     9607    0.29%
*   423+  171                         2034.0000     2029.0000     9765    0.25%
    500   235     2030.0000    19     2034.0000     2029.0000    11513    0.25%
*   534+  174                         2033.0000     2030.0000    14089    0.15%
*   534+  116                         2032.0000     2030.0000    14172    0.10%
*   534+   77                         2031.0000     2030.0000    14172    0.05%
    600    74     2030.0000    24     2031.0000     2030.0000    16106    0.05%
    700   132     2030.0000    16     2031.0000     2030.0000    20148    0.05%
    800    91     2030.0000    19     2031.0000     2030.0000    42136    0.05%
    900   147     2030.0000    10     2031.0000     2030.0000    49201    0.05%
   1000   161    infeasible           2031.0000     2030.0000    63905    0.05%
Elapsed time =   9.76 sec. (tree size =  0.08 MB, solutions = 9)
   1100   187     2030.0000    25     2031.0000     2030.0000    77134    0.05%
   1200   251    infeasible           2031.0000     2030.0000    87206    0.05%
   1300   330     2030.0000    20     2031.0000     2030.0000    93944    0.05%
   1400   392     2030.0000    32     2031.0000     2030.0000   103029    0.05%
   1500   448    infeasible           2031.0000     2030.0000   112959    0.05%
   1600   504     2030.0000    22     2031.0000     2030.0000   130406    0.05%
   1700   578     2030.0000    25     2031.0000     2030.0000   142156    0.05%
   1800   625    infeasible           2031.0000     2030.0000   154772    0.05%
   1900   663     2030.0000    25     2031.0000     2030.0000   172826    0.05%
   2000   701     2030.0000    24     2031.0000     2030.0000   189359    0.05%
Elapsed time =  26.38 sec. (tree size =  0.37 MB, solutions = 9)
   2100   775     2030.0000    20     2031.0000     2030.0000   201040    0.05%
   2200   829    infeasible           2031.0000     2030.0000   214488    0.05%
   2300   871    infeasible           2031.0000     2030.0000   236481    0.05%
   2400   905    infeasible           2031.0000     2030.0000   265246    0.05%
   2500   991     2030.0000    20     2031.0000     2030.0000   269683    0.05%
   2600  1077    infeasible           2031.0000     2030.0000   274299    0.05%
   2700  1143     2030.0000    36     2031.0000     2030.0000   283040    0.05%
   2800  1207     2030.0000    42     2031.0000     2030.0000   303920    0.05%
   2900  1275     2030.0000    30     2031.0000     2030.0000   323130    0.05%
   3000  1351     2030.0000    28     2031.0000     2030.0000   340082    0.05%
Elapsed time =  53.25 sec. (tree size =  0.76 MB, solutions = 9)
   3100  1431     2030.0000    34     2031.0000     2030.0000   357948    0.05%
   3200  1515     2030.0000    24     2031.0000     2030.0000   368550    0.05%
   3300  1584     2030.0009    14     2031.0000     2030.0000   377951    0.05%
   3400  1630     2030.0000    26     2031.0000     2030.0000   409113    0.05%
   3500  1712     2030.0000    30     2031.0000     2030.0000   426369    0.05%
   3600  1736     2030.0000    51     2031.0000     2030.0000   462974    0.05%
   3700  1798     2030.0000    54     2031.0000     2030.0000   494403    0.05%
   3800  1782     2030.0000    38     2031.0000     2030.0000   540265    0.05%
   3900  1872     2030.0000    14     2031.0000     2030.0000   548533    0.05%
   4000  1904     2030.0000    38     2031.0000     2030.0000   571855    0.05%
Elapsed time = 107.14 sec. (tree size =  1.09 MB, solutions = 9)
   4100  1932     2030.0000    51     2031.0000     2030.0000   608471    0.05%
   4200  1962     2030.0000    50     2031.0000     2030.0000   645820    0.05%
   4300  1964    infeasible           2031.0000     2030.0000   681855    0.05%
   4400  1964     2030.0000    29     2031.0000     2030.0000   720946    0.05%
   4500  2030    infeasible           2031.0000     2030.0000   741601    0.05%
   4600  2050     2030.0000    62     2031.0000     2030.0000   782746    0.05%
   4700  2104     2030.0000    44     2031.0000     2030.0000   817864    0.05%
   4800  2148     2030.0000    48     2031.0000     2030.0000   859395    0.05%
   4900  2192     2030.0000    42     2031.0000     2030.0000   892116    0.05%
   5000  2216     2030.0000    16     2031.0000     2030.0000   924955    0.05%
Elapsed time = 212.23 sec. (tree size =  1.31 MB, solutions = 9)
   5100  2236    infeasible           2031.0000     2030.0000   965403    0.05%
   5200  2316     2030.0000    21     2031.0000     2030.0000   980586    0.05%
   5300  2360    infeasible           2031.0000     2030.0000  1017674    0.05%
   5400  2394     2030.0000    45     2031.0000     2030.0000  1055215    0.05%
   5500  2458     2030.0000    66     2031.0000     2030.0000  1086550    0.05%
   5600  2472     2030.0000    58     2031.0000     2030.0000  1133896    0.05%
   5700  2526    infeasible           2031.0000     2030.0000  1167414    0.05%
   5800  2498    infeasible           2031.0000     2030.0000  1219592    0.05%
   5900  2562    infeasible           2031.0000     2030.0000  1237478    0.05%
   6000  2600     2030.0000    14     2031.0000     2030.0000  1264201    0.05%
Elapsed time = 336.00 sec. (tree size =  1.55 MB, solutions = 9)
   6100  2660    infeasible           2031.0000     2030.0000  1286972    0.05%
   6200  2756     2030.0000    18     2031.0000     2030.0000  1291774    0.05%
   6300  2750    infeasible           2031.0000     2030.0000  1328164    0.05%
   6400  2834     2030.0000    20     2031.0000     2030.0000  1336626    0.05%
   6500  2855     2030.0000    24     2031.0000     2030.0000  1360978    0.05%
   6600  2909     2030.0000    22     2031.0000     2030.0000  1379093    0.05%
   6700  2952     2030.0000    22     2031.0000     2030.0000  1400473    0.05%
   6800  2954     2030.0000    24     2031.0000     2030.0000  1432222    0.05%
   6900  3030     2030.0000    32     2031.0000     2030.0000  1441838    0.05%
*  6974     0      integral     0     2030.0000     2030.0000  1455157    0.00%

Cover cuts applied:  1010
Mixed integer rounding cuts applied:  8
Gomory fractional cuts applied:  17

Solution pool: 10 solutions saved.

MIP - Integer optimal solution:  Objective = 2.0300000000e+003
Solution time =  405.75 sec.  Iterations = 1455157  Nodes = 6975


Incumbent solution
Variable Name           Solution Value
Cmax                       2030.000000
X_1_4                         1.000000
X_2_6                         1.000000
X_3_10                        1.000000
X_4_1                         1.000000
X_5_6                         1.000000
X_6_8                         1.000000
X_7_7                         1.000000
X_8_5                         1.000000
X_9_3                         1.000000
X_10_10                       1.000000
X_11_3                        1.000000
X_12_4                        1.000000
X_13_4                        1.000000
X_14_5                        1.000000
X_15_4                        1.000000
X_16_4                        1.000000
X_17_7                        1.000000
X_18_9                        1.000000
X_19_4                        1.000000
X_20_10                       1.000000
X_21_10                       1.000000
X_22_7                        1.000000
X_23_5                        1.000000
X_24_7                        1.000000
X_25_9                        1.000000
X_26_3                        1.000000
X_27_9                        1.000000
X_28_10                       1.000000
X_29_4                        1.000000
X_30_10                       1.000000
X_31_4                        1.000000
X_32_6                        1.000000
X_33_5                        1.000000
X_34_4                        1.000000
X_35_8                        1.000000
X_36_3                        1.000000
X_37_6                        1.000000
X_38_6                        1.000000
X_39_8                        1.000000
X_40_10                       1.000000
X_41_1                        1.000000
X_42_8                        1.000000
X_43_3                        1.000000
X_44_8                        1.000000
X_45_9                        1.000000
X_46_10                       1.000000
X_47_2                        1.000000
X_48_1                        1.000000
X_49_6                        1.000000
X_50_9                        1.000000
X_51_5                        1.000000
X_52_8                        1.000000
X_53_9                        1.000000
X_54_5                        1.000000
X_55_7                        1.000000
X_56_6                        1.000000
X_57_8                        1.000000
X_58_6                        1.000000
X_59_10                       1.000000
X_60_3                        1.000000
X_61_3                        1.000000
X_62_7                        1.000000
X_63_6                        1.000000
X_64_10                       1.000000
X_65_3                        1.000000
X_66_4                        1.000000
X_67_5                        1.000000
X_68_8                        1.000000
X_69_9                        1.000000
X_70_7                        1.000000
X_71_8                        1.000000
X_72_5                        1.000000
X_73_8                        1.000000
X_74_5                        1.000000
X_75_6                        1.000000
X_76_9                        1.000000
X_77_5                        1.000000
X_78_9                        1.000000
X_79_2                        1.000000
X_80_8                        1.000000
X_81_2                        1.000000
X_82_5                        1.000000
X_83_1                        1.000000
X_84_2                        1.000000
X_85_2                        1.000000
X_86_1                        1.000000
X_87_3                        1.000000
X_88_4                        1.000000
X_89_5                        1.000000
X_90_2                        1.000000
X_91_1                        1.000000
X_92_8                        1.000000
X_93_2                        1.000000
X_94_1                        1.000000
X_95_3                        1.000000
X_96_3                        1.000000
X_97_7                        1.000000
X_98_6                        1.000000
X_99_10                       1.000000
X_100_7                       1.000000
X_101_3                       1.000000
X_102_3                       1.000000
X_103_6                       1.000000
X_104_7                       1.000000
X_105_9                       1.000000
X_106_1                       1.000000
X_107_7                       1.000000
X_108_10                      1.000000
X_109_4                       1.000000
X_110_9                       1.000000
X_111_4                       1.000000
X_112_2                       1.000000
X_113_9                       1.000000
X_114_4                       1.000000
X_115_8                       1.000000
X_116_4                       1.000000
X_117_4                       1.000000
X_118_2                       1.000000
X_119_10                      1.000000
X_120_7                       1.000000
X_121_9                       1.000000
X_122_1                       1.000000
X_123_2                       1.000000
X_124_6                       1.000000
X_125_7                       1.000000
X_126_1                       1.000000
X_127_4                       1.000000
X_128_9                       1.000000
X_129_3                       1.000000
X_130_7                       1.000000
X_131_5                       1.000000
X_132_2                       1.000000
X_133_6                       1.000000
X_134_7                       1.000000
X_135_5                       1.000000
X_136_1                       1.000000
X_137_3                       1.000000
X_138_10                      1.000000
X_139_1                       1.000000
X_140_3                       1.000000
X_141_1                       1.000000
X_142_10                      1.000000
X_143_7                       1.000000
X_144_7                       1.000000
X_145_8                       1.000000
X_146_9                       1.000000
X_147_2                       1.000000
X_148_10                      1.000000
X_149_1                       1.000000
X_150_4                       1.000000
X_151_9                       1.000000
X_152_3                       1.000000
X_153_2                       1.000000
X_154_9                       1.000000
X_155_4                       0.000000
X_155_5                       1.000000
X_156_2                       1.000000
X_157_10                      1.000000
X_158_2                       1.000000
X_159_2                       1.000000
X_160_10                      1.000000
X_161_2                       1.000000
X_162_5                       1.000000
X_163_8                       1.000000
X_164_2                       1.000000
X_165_6                       1.000000
X_166_5                       1.000000
X_167_3                       1.000000
X_168_6                       1.000000
X_169_6                       1.000000
X_170_4                       1.000000
X_170_5                       0.000000
X_171_8                       1.000000
X_172_8                       1.000000
X_173_4                       1.000000
X_174_5                       1.000000
X_175_1                       1.000000
X_176_10                      1.000000
X_177_8                       1.000000
X_178_9                       1.000000
X_179_1                       1.000000
X_180_6                       1.000000
X_181_1                       1.000000
X_182_1                       1.000000
X_183_8                       1.000000
X_184_1                       1.000000
X_185_9                       1.000000
X_186_10                      1.000000
X_187_2                       1.000000
X_188_3                       1.000000
X_189_5                       1.000000
X_190_5                       1.000000
X_191_9                       1.000000
X_192_6                       1.000000
X_193_2                       1.000000
X_194_6                       1.000000
X_195_1                       1.000000
X_196_3                       1.000000
X_197_7                       1.000000
X_198_7                       1.000000
X_199_8                       1.000000
X_200_7                       1.000000
All other variables in the range 1-2001 are 0.
